3560.39
0 10 11 7 8 17 5 6 13 14 2 4 12 3 9 1 0
0 20 35 29 24 25 23 15 91 16 46 19 18 21 22 26 28 27 0
0 33 34 30 32 31 36 38 44 37 42 43 41 39 40 0
0 57 56 55 54 50 51 64 49 47 48 45 60 52 53 0
0 66 65 63 62 61 59 58 67 68 69 0
0 75 74 72 73 84 83 82 70 71 81 78 79 77 80 76 0
0 90 88 85 93 86 92 87 95 94 89 0
0 102 103 101 108 107 106 104 99 96 97 100 98 105 0
0 119 113 114 118 111 121 129 116 109 110 115 117 112 0
0 130 133 125 124 123 120 136 128 131 126 122 132 127 0
0 143 199 141 140 142 145 139 134 135 138 137 144 147 146 0
0 153 148 157 150 163 155 149 152 151 156 154 0
0 165 158 164 161 160 162 159 168 166 0
0 175 174 173 172 171 170 179 177 169 176 167 0
0 182 181 185 184 187 186 178 192 183 180 0
0 193 191 194 190 189 188 196 195 197 0
